&FORCE_EVAL
  STRESS_TENSOR ANALYTICAL
  METHOD QS
  &DFT
    BASIS_SET_FILE_NAME BASIS_MOLOPT_UZH
    POTENTIAL_FILE_NAME POTENTIAL_UZH
    CHARGE 0
    &QS
      METHOD GPW
      EPS_DEFAULT 1.0E-12
    &END QS
    &XC
	&XC_FUNCTIONAL
	  &GGA_X_RPBE
	  &END GGA_X_RPBE
	  &GGA_C_PBE
	  &END GGA_C_PBE
	&END XC_FUNCTIONAL
      !&XC_FUNCTIONAL PBE
      !&END XC_FUNCTIONAL
      !&VDW_POTENTIAL
      !  POTENTIAL_TYPE PAIR_POTENTIAL
      !  &PAIR_POTENTIAL
      !    TYPE DFTD3(BJ)
      !    REFERENCE_FUNCTIONAL PBE
      !    PARAMETER_FILE_NAME dftd3.dat
      !  &END PAIR_POTENTIAL
      !&END VDW_POTENTIAL
    &END XC
    &SCF
      EPS_SCF 1.0E-8
      SCF_GUESS RESTART
      MAX_SCF 20
      &OT
        MINIMIZER DIIS
        PRECONDITIONER FULL_ALL
      &END OT
      &OUTER_SCF
        EPS_SCF 1.0E-8
        MAX_SCF 5
      &END OUTER_SCF
    &END SCF
    &MGRID
        CUTOFF 1000
        REL_CUTOFF 60
    &END MGRID
  &END DFT
  &SUBSYS
    &KIND O
      BASIS_SET TZVP-MOLOPT-PBE-GTH-q6
      POTENTIAL GTH-PBE-q6
    &END KIND
    &KIND H
      BASIS_SET TZVP-MOLOPT-PBE-GTH-q1
      POTENTIAL GTH-PBE-q1
    &END KIND
  &END SUBSYS
&END FORCE_EVAL
